\Problem name: IloCplex

Maximize
 obj: 10.8 z0.1.0 + 8.4 z0.2.0 + 11 z0.3.0 + 3 z0.4.0 + 2.6 z0.5.0 + 8 z0.6.0
      + 10 z0.7.0 + 2.4 z0.8.0 + 8.8 z0.9.0 + 10.8 z1.0.0 + 14.4 z1.2.0
      + 20.6 z1.3.0 + 7.8 z1.4.0 + 9.8 z1.5.0 + 17.6 z1.6.0 + 18.8 z1.7.0
      + 11.2 z1.8.0 + 17.6 z1.9.0 + 8.4 z2.0.0 + 14.4 z2.1.0 + 11.4 z2.3.0
      + 6.6 z2.4.0 + 10.8 z2.5.0 + 9.4 z2.6.0 + 8.2 z2.7.0 + 10.8 z2.8.0
      + 7.6 z2.9.0 + 11 z3.0.0 + 20.6 z3.1.0 + 11.4 z3.2.0 + 12.8 z3.4.0
      + 13.6 z3.5.0 + 3 z3.6.0 + 3.6 z3.7.0 + 12.4 z3.8.0 + 3.8 z3.9.0
      + 3 z4.0.0 + 7.8 z4.1.0 + 6.6 z4.2.0 + 12.8 z4.3.0 + 4.2 z4.5.0
      + 9.8 z4.6.0 + 11 z4.7.0 + 5 z4.8.0 + 9.8 z4.9.0 + 2.6 z5.0.0
      + 9.8 z5.1.0 + 10.8 z5.2.0 + 13.6 z5.3.0 + 4.2 z5.4.0 + 10.6 z5.6.0
      + 12.6 z5.7.0 + 1.4 z5.8.0 + 11.4 z5.9.0 + 8 z6.0.0 + 17.6 z6.1.0
      + 9.4 z6.2.0 + 3 z6.3.0 + 9.8 z6.4.0 + 10.6 z6.5.0 + 3.4 z6.7.0
      + 9.4 z6.8.0 + 2.6 z6.9.0 + 10 z7.0.0 + 18.8 z7.1.0 + 8.2 z7.2.0
      + 3.6 z7.3.0 + 11 z7.4.0 + 12.6 z7.5.0 + 3.4 z7.6.0 + 12.4 z7.8.0
      + 1.2 z7.9.0 + 2.4 z8.0.0 + 11.2 z8.1.0 + 10.8 z8.2.0 + 12.4 z8.3.0
      + 5 z8.4.0 + 1.4 z8.5.0 + 9.4 z8.6.0 + 12.4 z8.7.0 + 11.2 z8.9.0
      + 8.8 z9.0.0 + 17.6 z9.1.0 + 7.6 z9.2.0 + 3.8 z9.3.0 + 9.8 z9.4.0
      + 11.4 z9.5.0 + 2.6 z9.6.0 + 1.2 z9.7.0 + 11.2 z9.8.0 + 21.6 z0.1.1
      + 16.8 z0.2.1 + 22 z0.3.1 + 6 z0.4.1 + 5.2 z0.5.1 + 16 z0.6.1 + 20 z0.7.1
      + 4.8 z0.8.1 + 17.6 z0.9.1 + 21.6 z1.0.1 + 28.8 z1.2.1 + 41.2 z1.3.1
      + 15.6 z1.4.1 + 19.6 z1.5.1 + 35.2 z1.6.1 + 37.6 z1.7.1 + 22.4 z1.8.1
      + 35.2 z1.9.1 + 16.8 z2.0.1 + 28.8 z2.1.1 + 22.8 z2.3.1 + 13.2 z2.4.1
      + 21.6 z2.5.1 + 18.8 z2.6.1 + 16.4 z2.7.1 + 21.6 z2.8.1 + 15.2 z2.9.1
      + 22 z3.0.1 + 41.2 z3.1.1 + 22.8 z3.2.1 + 25.6 z3.4.1 + 27.2 z3.5.1
      + 6 z3.6.1 + 7.2 z3.7.1 + 24.8 z3.8.1 + 7.6 z3.9.1 + 6 z4.0.1
      + 15.6 z4.1.1 + 13.2 z4.2.1 + 25.6 z4.3.1 + 8.4 z4.5.1 + 19.6 z4.6.1
      + 22 z4.7.1 + 10 z4.8.1 + 19.6 z4.9.1 + 5.2 z5.0.1 + 19.6 z5.1.1
      + 21.6 z5.2.1 + 27.2 z5.3.1 + 8.4 z5.4.1 + 21.2 z5.6.1 + 25.2 z5.7.1
      + 2.8 z5.8.1 + 22.8 z5.9.1 + 16 z6.0.1 + 35.2 z6.1.1 + 18.8 z6.2.1
      + 6 z6.3.1 + 19.6 z6.4.1 + 21.2 z6.5.1 + 6.8 z6.7.1 + 18.8 z6.8.1
      + 5.2 z6.9.1 + 20 z7.0.1 + 37.6 z7.1.1 + 16.4 z7.2.1 + 7.2 z7.3.1
      + 22 z7.4.1 + 25.2 z7.5.1 + 6.8 z7.6.1 + 24.8 z7.8.1 + 2.4 z7.9.1
      + 4.8 z8.0.1 + 22.4 z8.1.1 + 21.6 z8.2.1 + 24.8 z8.3.1 + 10 z8.4.1
      + 2.8 z8.5.1 + 18.8 z8.6.1 + 24.8 z8.7.1 + 22.4 z8.9.1 + 17.6 z9.0.1
      + 35.2 z9.1.1 + 15.2 z9.2.1 + 7.6 z9.3.1 + 19.6 z9.4.1 + 22.8 z9.5.1
      + 5.2 z9.6.1 + 2.4 z9.7.1 + 22.4 z9.8.1 + 21.6 z0.1.2 + 16.8 z0.2.2
      + 22 z0.3.2 + 6 z0.4.2 + 5.2 z0.5.2 + 16 z0.6.2 + 20 z0.7.2 + 4.8 z0.8.2
      + 17.6 z0.9.2 + 21.6 z1.0.2 + 28.8 z1.2.2 + 41.2 z1.3.2 + 15.6 z1.4.2
      + 19.6 z1.5.2 + 35.2 z1.6.2 + 37.6 z1.7.2 + 22.4 z1.8.2 + 35.2 z1.9.2
      + 16.8 z2.0.2 + 28.8 z2.1.2 + 22.8 z2.3.2 + 13.2 z2.4.2 + 21.6 z2.5.2
      + 18.8 z2.6.2 + 16.4 z2.7.2 + 21.6 z2.8.2 + 15.2 z2.9.2 + 22 z3.0.2
      + 41.2 z3.1.2 + 22.8 z3.2.2 + 25.6 z3.4.2 + 27.2 z3.5.2 + 6 z3.6.2
      + 7.2 z3.7.2 + 24.8 z3.8.2 + 7.6 z3.9.2 + 6 z4.0.2 + 15.6 z4.1.2
      + 13.2 z4.2.2 + 25.6 z4.3.2 + 8.4 z4.5.2 + 19.6 z4.6.2 + 22 z4.7.2
      + 10 z4.8.2 + 19.6 z4.9.2 + 5.2 z5.0.2 + 19.6 z5.1.2 + 21.6 z5.2.2
      + 27.2 z5.3.2 + 8.4 z5.4.2 + 21.2 z5.6.2 + 25.2 z5.7.2 + 2.8 z5.8.2
      + 22.8 z5.9.2 + 16 z6.0.2 + 35.2 z6.1.2 + 18.8 z6.2.2 + 6 z6.3.2
      + 19.6 z6.4.2 + 21.2 z6.5.2 + 6.8 z6.7.2 + 18.8 z6.8.2 + 5.2 z6.9.2
      + 20 z7.0.2 + 37.6 z7.1.2 + 16.4 z7.2.2 + 7.2 z7.3.2 + 22 z7.4.2
      + 25.2 z7.5.2 + 6.8 z7.6.2 + 24.8 z7.8.2 + 2.4 z7.9.2 + 4.8 z8.0.2
      + 22.4 z8.1.2 + 21.6 z8.2.2 + 24.8 z8.3.2 + 10 z8.4.2 + 2.8 z8.5.2
      + 18.8 z8.6.2 + 24.8 z8.7.2 + 22.4 z8.9.2 + 17.6 z9.0.2 + 35.2 z9.1.2
      + 15.2 z9.2.2 + 7.6 z9.3.2 + 19.6 z9.4.2 + 22.8 z9.5.2 + 5.2 z9.6.2
      + 2.4 z9.7.2 + 22.4 z9.8.2 + id483
Subject To
 id352: x0.0 + x0.1 + x0.2 + x0.3 + x0.4 + x0.5 + x0.6 + x0.7 + x0.8 + x0.9
         = 1
 id354: x1.0 + x1.1 + x1.2 + x1.3 + x1.4 + x1.5 + x1.6 + x1.7 + x1.8 + x1.9
         = 1
 id356: x2.0 + x2.1 + x2.2 + x2.3 + x2.4 + x2.5 + x2.6 + x2.7 + x2.8 + x2.9
         = 1
 id358: x3.0 + x3.1 + x3.2 + x3.3 + x3.4 + x3.5 + x3.6 + x3.7 + x3.8 + x3.9
         = 1
 id360: x4.0 + x4.1 + x4.2 + x4.3 + x4.4 + x4.5 + x4.6 + x4.7 + x4.8 + x4.9
         = 1
 id362: - 418 x0.0 - 418 x1.0 - 418 x2.0 - 418 x3.0 - 418 x4.0 + z0.0.0
        + z0.1.0 + z0.2.0 + z0.3.0 + z0.4.0 + z0.5.0 + z0.6.0 + z0.7.0 + z0.8.0
        + z0.9.0 <= 0
 id364: - 418 x0.1 - 418 x1.1 - 418 x2.1 - 418 x3.1 - 418 x4.1 + z1.0.0
        + z1.1.0 + z1.2.0 + z1.3.0 + z1.4.0 + z1.5.0 + z1.6.0 + z1.7.0 + z1.8.0
        + z1.9.0 <= 0
 id366: - 418 x0.2 - 418 x1.2 - 418 x2.2 - 418 x3.2 - 418 x4.2 + z2.0.0
        + z2.1.0 + z2.2.0 + z2.3.0 + z2.4.0 + z2.5.0 + z2.6.0 + z2.7.0 + z2.8.0
        + z2.9.0 <= 0
 id368: - 418 x0.3 - 418 x1.3 - 418 x2.3 - 418 x3.3 - 418 x4.3 + z3.0.0
        + z3.1.0 + z3.2.0 + z3.3.0 + z3.4.0 + z3.5.0 + z3.6.0 + z3.7.0 + z3.8.0
        + z3.9.0 <= 0
 id370: - 418 x0.4 - 418 x1.4 - 418 x2.4 - 418 x3.4 - 418 x4.4 + z4.0.0
        + z4.1.0 + z4.2.0 + z4.3.0 + z4.4.0 + z4.5.0 + z4.6.0 + z4.7.0 + z4.8.0
        + z4.9.0 <= 0
 id372: - 418 x0.5 - 418 x1.5 - 418 x2.5 - 418 x3.5 - 418 x4.5 + z5.0.0
        + z5.1.0 + z5.2.0 + z5.3.0 + z5.4.0 + z5.5.0 + z5.6.0 + z5.7.0 + z5.8.0
        + z5.9.0 <= 0
 id374: - 418 x0.6 - 418 x1.6 - 418 x2.6 - 418 x3.6 - 418 x4.6 + z6.0.0
        + z6.1.0 + z6.2.0 + z6.3.0 + z6.4.0 + z6.5.0 + z6.6.0 + z6.7.0 + z6.8.0
        + z6.9.0 <= 0
 id376: - 418 x0.7 - 418 x1.7 - 418 x2.7 - 418 x3.7 - 418 x4.7 + z7.0.0
        + z7.1.0 + z7.2.0 + z7.3.0 + z7.4.0 + z7.5.0 + z7.6.0 + z7.7.0 + z7.8.0
        + z7.9.0 <= 0
 id378: - 418 x0.8 - 418 x1.8 - 418 x2.8 - 418 x3.8 - 418 x4.8 + z8.0.0
        + z8.1.0 + z8.2.0 + z8.3.0 + z8.4.0 + z8.5.0 + z8.6.0 + z8.7.0 + z8.8.0
        + z8.9.0 <= 0
 id380: - 418 x0.9 - 418 x1.9 - 418 x2.9 - 418 x3.9 - 418 x4.9 + z9.0.0
        + z9.1.0 + z9.2.0 + z9.3.0 + z9.4.0 + z9.5.0 + z9.6.0 + z9.7.0 + z9.8.0
        + z9.9.0 <= 0
 id382: z0.0.0 + z1.0.0 + z2.0.0 + z3.0.0 + z4.0.0 + z5.0.0 + z6.0.0 + z7.0.0
        + z8.0.0 + z9.0.0 <= 38
 id384: z0.1.0 + z1.1.0 + z2.1.0 + z3.1.0 + z4.1.0 + z5.1.0 + z6.1.0 + z7.1.0
        + z8.1.0 + z9.1.0 <= 8
 id386: z0.2.0 + z1.2.0 + z2.2.0 + z3.2.0 + z4.2.0 + z5.2.0 + z6.2.0 + z7.2.0
        + z8.2.0 + z9.2.0 <= 0
 id388: z0.3.0 + z1.3.0 + z2.3.0 + z3.3.0 + z4.3.0 + z5.3.0 + z6.3.0 + z7.3.0
        + z8.3.0 + z9.3.0 <= 87
 id390: z0.4.0 + z1.4.0 + z2.4.0 + z3.4.0 + z4.4.0 + z5.4.0 + z6.4.0 + z7.4.0
        + z8.4.0 + z9.4.0 <= 72
 id392: z0.5.0 + z1.5.0 + z2.5.0 + z3.5.0 + z4.5.0 + z5.5.0 + z6.5.0 + z7.5.0
        + z8.5.0 + z9.5.0 <= 21
 id394: z0.6.0 + z1.6.0 + z2.6.0 + z3.6.0 + z4.6.0 + z5.6.0 + z6.6.0 + z7.6.0
        + z8.6.0 + z9.6.0 <= 26
 id396: z0.7.0 + z1.7.0 + z2.7.0 + z3.7.0 + z4.7.0 + z5.7.0 + z6.7.0 + z7.7.0
        + z8.7.0 + z9.7.0 <= 70
 id398: z0.8.0 + z1.8.0 + z2.8.0 + z3.8.0 + z4.8.0 + z5.8.0 + z6.8.0 + z7.8.0
        + z8.8.0 + z9.8.0 <= 8
 id400: z0.9.0 + z1.9.0 + z2.9.0 + z3.9.0 + z4.9.0 + z5.9.0 + z6.9.0 + z7.9.0
        + z8.9.0 + z9.9.0 <= 88
 id402: - 334.4 x0.0 - 334.4 x1.0 - 334.4 x2.0 - 334.4 x3.0 - 334.4 x4.0
        + z0.0.1 + z0.1.1 + z0.2.1 + z0.3.1 + z0.4.1 + z0.5.1 + z0.6.1 + z0.7.1
        + z0.8.1 + z0.9.1 <= 0
 id404: - 334.4 x0.1 - 334.4 x1.1 - 334.4 x2.1 - 334.4 x3.1 - 334.4 x4.1
        + z1.0.1 + z1.1.1 + z1.2.1 + z1.3.1 + z1.4.1 + z1.5.1 + z1.6.1 + z1.7.1
        + z1.8.1 + z1.9.1 <= 0
 id406: - 334.4 x0.2 - 334.4 x1.2 - 334.4 x2.2 - 334.4 x3.2 - 334.4 x4.2
        + z2.0.1 + z2.1.1 + z2.2.1 + z2.3.1 + z2.4.1 + z2.5.1 + z2.6.1 + z2.7.1
        + z2.8.1 + z2.9.1 <= 0
 id408: - 334.4 x0.3 - 334.4 x1.3 - 334.4 x2.3 - 334.4 x3.3 - 334.4 x4.3
        + z3.0.1 + z3.1.1 + z3.2.1 + z3.3.1 + z3.4.1 + z3.5.1 + z3.6.1 + z3.7.1
        + z3.8.1 + z3.9.1 <= 0
 id410: - 334.4 x0.4 - 334.4 x1.4 - 334.4 x2.4 - 334.4 x3.4 - 334.4 x4.4
        + z4.0.1 + z4.1.1 + z4.2.1 + z4.3.1 + z4.4.1 + z4.5.1 + z4.6.1 + z4.7.1
        + z4.8.1 + z4.9.1 <= 0
 id412: - 334.4 x0.5 - 334.4 x1.5 - 334.4 x2.5 - 334.4 x3.5 - 334.4 x4.5
        + z5.0.1 + z5.1.1 + z5.2.1 + z5.3.1 + z5.4.1 + z5.5.1 + z5.6.1 + z5.7.1
        + z5.8.1 + z5.9.1 <= 0
 id414: - 334.4 x0.6 - 334.4 x1.6 - 334.4 x2.6 - 334.4 x3.6 - 334.4 x4.6
        + z6.0.1 + z6.1.1 + z6.2.1 + z6.3.1 + z6.4.1 + z6.5.1 + z6.6.1 + z6.7.1
        + z6.8.1 + z6.9.1 <= 0
 id416: - 334.4 x0.7 - 334.4 x1.7 - 334.4 x2.7 - 334.4 x3.7 - 334.4 x4.7
        + z7.0.1 + z7.1.1 + z7.2.1 + z7.3.1 + z7.4.1 + z7.5.1 + z7.6.1 + z7.7.1
        + z7.8.1 + z7.9.1 <= 0
 id418: - 334.4 x0.8 - 334.4 x1.8 - 334.4 x2.8 - 334.4 x3.8 - 334.4 x4.8
        + z8.0.1 + z8.1.1 + z8.2.1 + z8.3.1 + z8.4.1 + z8.5.1 + z8.6.1 + z8.7.1
        + z8.8.1 + z8.9.1 <= 0
 id420: - 334.4 x0.9 - 334.4 x1.9 - 334.4 x2.9 - 334.4 x3.9 - 334.4 x4.9
        + z9.0.1 + z9.1.1 + z9.2.1 + z9.3.1 + z9.4.1 + z9.5.1 + z9.6.1 + z9.7.1
        + z9.8.1 + z9.9.1 <= 0
 id422: z0.0.1 + z1.0.1 + z2.0.1 + z3.0.1 + z4.0.1 + z5.0.1 + z6.0.1 + z7.0.1
        + z8.0.1 + z9.0.1 <= 38
 id424: z0.1.1 + z1.1.1 + z2.1.1 + z3.1.1 + z4.1.1 + z5.1.1 + z6.1.1 + z7.1.1
        + z8.1.1 + z9.1.1 <= 8
 id426: z0.2.1 + z1.2.1 + z2.2.1 + z3.2.1 + z4.2.1 + z5.2.1 + z6.2.1 + z7.2.1
        + z8.2.1 + z9.2.1 <= 0
 id428: z0.3.1 + z1.3.1 + z2.3.1 + z3.3.1 + z4.3.1 + z5.3.1 + z6.3.1 + z7.3.1
        + z8.3.1 + z9.3.1 <= 87
 id430: z0.4.1 + z1.4.1 + z2.4.1 + z3.4.1 + z4.4.1 + z5.4.1 + z6.4.1 + z7.4.1
        + z8.4.1 + z9.4.1 <= 72
 id432: z0.5.1 + z1.5.1 + z2.5.1 + z3.5.1 + z4.5.1 + z5.5.1 + z6.5.1 + z7.5.1
        + z8.5.1 + z9.5.1 <= 21
 id434: z0.6.1 + z1.6.1 + z2.6.1 + z3.6.1 + z4.6.1 + z5.6.1 + z6.6.1 + z7.6.1
        + z8.6.1 + z9.6.1 <= 26
 id436: z0.7.1 + z1.7.1 + z2.7.1 + z3.7.1 + z4.7.1 + z5.7.1 + z6.7.1 + z7.7.1
        + z8.7.1 + z9.7.1 <= 70
 id438: z0.8.1 + z1.8.1 + z2.8.1 + z3.8.1 + z4.8.1 + z5.8.1 + z6.8.1 + z7.8.1
        + z8.8.1 + z9.8.1 <= 8
 id440: z0.9.1 + z1.9.1 + z2.9.1 + z3.9.1 + z4.9.1 + z5.9.1 + z6.9.1 + z7.9.1
        + z8.9.1 + z9.9.1 <= 88
 id442: - 104.5 x0.0 - 104.5 x1.0 - 104.5 x2.0 - 104.5 x3.0 - 104.5 x4.0
        + z0.0.2 + z0.1.2 + z0.2.2 + z0.3.2 + z0.4.2 + z0.5.2 + z0.6.2 + z0.7.2
        + z0.8.2 + z0.9.2 <= 0
 id444: - 104.5 x0.1 - 104.5 x1.1 - 104.5 x2.1 - 104.5 x3.1 - 104.5 x4.1
        + z1.0.2 + z1.1.2 + z1.2.2 + z1.3.2 + z1.4.2 + z1.5.2 + z1.6.2 + z1.7.2
        + z1.8.2 + z1.9.2 <= 0
 id446: - 104.5 x0.2 - 104.5 x1.2 - 104.5 x2.2 - 104.5 x3.2 - 104.5 x4.2
        + z2.0.2 + z2.1.2 + z2.2.2 + z2.3.2 + z2.4.2 + z2.5.2 + z2.6.2 + z2.7.2
        + z2.8.2 + z2.9.2 <= 0
 id448: - 104.5 x0.3 - 104.5 x1.3 - 104.5 x2.3 - 104.5 x3.3 - 104.5 x4.3
        + z3.0.2 + z3.1.2 + z3.2.2 + z3.3.2 + z3.4.2 + z3.5.2 + z3.6.2 + z3.7.2
        + z3.8.2 + z3.9.2 <= 0
 id450: - 104.5 x0.4 - 104.5 x1.4 - 104.5 x2.4 - 104.5 x3.4 - 104.5 x4.4
        + z4.0.2 + z4.1.2 + z4.2.2 + z4.3.2 + z4.4.2 + z4.5.2 + z4.6.2 + z4.7.2
        + z4.8.2 + z4.9.2 <= 0
 id452: - 104.5 x0.5 - 104.5 x1.5 - 104.5 x2.5 - 104.5 x3.5 - 104.5 x4.5
        + z5.0.2 + z5.1.2 + z5.2.2 + z5.3.2 + z5.4.2 + z5.5.2 + z5.6.2 + z5.7.2
        + z5.8.2 + z5.9.2 <= 0
 id454: - 104.5 x0.6 - 104.5 x1.6 - 104.5 x2.6 - 104.5 x3.6 - 104.5 x4.6
        + z6.0.2 + z6.1.2 + z6.2.2 + z6.3.2 + z6.4.2 + z6.5.2 + z6.6.2 + z6.7.2
        + z6.8.2 + z6.9.2 <= 0
 id456: - 104.5 x0.7 - 104.5 x1.7 - 104.5 x2.7 - 104.5 x3.7 - 104.5 x4.7
        + z7.0.2 + z7.1.2 + z7.2.2 + z7.3.2 + z7.4.2 + z7.5.2 + z7.6.2 + z7.7.2
        + z7.8.2 + z7.9.2 <= 0
 id458: - 104.5 x0.8 - 104.5 x1.8 - 104.5 x2.8 - 104.5 x3.8 - 104.5 x4.8
        + z8.0.2 + z8.1.2 + z8.2.2 + z8.3.2 + z8.4.2 + z8.5.2 + z8.6.2 + z8.7.2
        + z8.8.2 + z8.9.2 <= 0
 id460: - 104.5 x0.9 - 104.5 x1.9 - 104.5 x2.9 - 104.5 x3.9 - 104.5 x4.9
        + z9.0.2 + z9.1.2 + z9.2.2 + z9.3.2 + z9.4.2 + z9.5.2 + z9.6.2 + z9.7.2
        + z9.8.2 + z9.9.2 <= 0
 id462: z0.0.2 + z1.0.2 + z2.0.2 + z3.0.2 + z4.0.2 + z5.0.2 + z6.0.2 + z7.0.2
        + z8.0.2 + z9.0.2 <= 38
 id464: z0.1.2 + z1.1.2 + z2.1.2 + z3.1.2 + z4.1.2 + z5.1.2 + z6.1.2 + z7.1.2
        + z8.1.2 + z9.1.2 <= 8
 id466: z0.2.2 + z1.2.2 + z2.2.2 + z3.2.2 + z4.2.2 + z5.2.2 + z6.2.2 + z7.2.2
        + z8.2.2 + z9.2.2 <= 0
 id468: z0.3.2 + z1.3.2 + z2.3.2 + z3.3.2 + z4.3.2 + z5.3.2 + z6.3.2 + z7.3.2
        + z8.3.2 + z9.3.2 <= 87
 id470: z0.4.2 + z1.4.2 + z2.4.2 + z3.4.2 + z4.4.2 + z5.4.2 + z6.4.2 + z7.4.2
        + z8.4.2 + z9.4.2 <= 72
 id472: z0.5.2 + z1.5.2 + z2.5.2 + z3.5.2 + z4.5.2 + z5.5.2 + z6.5.2 + z7.5.2
        + z8.5.2 + z9.5.2 <= 21
 id474: z0.6.2 + z1.6.2 + z2.6.2 + z3.6.2 + z4.6.2 + z5.6.2 + z6.6.2 + z7.6.2
        + z8.6.2 + z9.6.2 <= 26
 id476: z0.7.2 + z1.7.2 + z2.7.2 + z3.7.2 + z4.7.2 + z5.7.2 + z6.7.2 + z7.7.2
        + z8.7.2 + z9.7.2 <= 70
 id478: z0.8.2 + z1.8.2 + z2.8.2 + z3.8.2 + z4.8.2 + z5.8.2 + z6.8.2 + z7.8.2
        + z8.8.2 + z9.8.2 <= 8
 id480: z0.9.2 + z1.9.2 + z2.9.2 + z3.9.2 + z4.9.2 + z5.9.2 + z6.9.2 + z7.9.2
        + z8.9.2 + z9.9.2 <= 88
Bounds
 0 <= x0.0 <= 1
 0 <= x0.1 <= 1
 0 <= x0.2 <= 1
 0 <= x0.3 <= 1
 0 <= x0.4 <= 1
 0 <= x0.5 <= 1
 0 <= x0.6 <= 1
 0 <= x0.7 <= 1
 0 <= x0.8 <= 1
 0 <= x0.9 <= 1
 0 <= x1.0 <= 1
 0 <= x1.1 <= 1
 0 <= x1.2 <= 1
 0 <= x1.3 <= 1
 0 <= x1.4 <= 1
 0 <= x1.5 <= 1
 0 <= x1.6 <= 1
 0 <= x1.7 <= 1
 0 <= x1.8 <= 1
 0 <= x1.9 <= 1
 0 <= x2.0 <= 1
 0 <= x2.1 <= 1
 0 <= x2.2 <= 1
 0 <= x2.3 <= 1
 0 <= x2.4 <= 1
 0 <= x2.5 <= 1
 0 <= x2.6 <= 1
 0 <= x2.7 <= 1
 0 <= x2.8 <= 1
 0 <= x2.9 <= 1
 0 <= x3.0 <= 1
 0 <= x3.1 <= 1
 0 <= x3.2 <= 1
 0 <= x3.3 <= 1
 0 <= x3.4 <= 1
 0 <= x3.5 <= 1
 0 <= x3.6 <= 1
 0 <= x3.7 <= 1
 0 <= x3.8 <= 1
 0 <= x3.9 <= 1
 0 <= x4.0 <= 1
 0 <= x4.1 <= 1
 0 <= x4.2 <= 1
 0 <= x4.3 <= 1
 0 <= x4.4 <= 1
 0 <= x4.5 <= 1
 0 <= x4.6 <= 1
 0 <= x4.7 <= 1
 0 <= x4.8 <= 1
 0 <= x4.9 <= 1
      id483 = 0
End
